NAME: random98
TYPE: TSP
DIMENSION: 98
EDGE_WEIGHT_TYPE: EXPLICIT
EDGE_WEIGHT_FORMAT: FULL_MATRIX
EDGE_WEIGHT_SECTION
0 615 615 615 615 615 34 615 615 26 27 28 615 615 15 9 21 615 615 615 615 615 615 615 615 11 615 615 615 615 615 615 615 13 615 615 615 615 615 615 615 15 25 615 615 615 615 33 615 19 615 615 615 615 26 21 615 615 615 615 615 26 33 615 615 615 615 14 615 6 615 615 615 34 615 615 16 31 615 615 18 19 615 615 615 615 615 615 19 615 615 615 25 615 615 615 615 615
615 0 615 615 615 615 615 615 14 615 615 615 615 11 615 615 28 23 34 22 615 615 615 615 615 615 615 615 615 615 615 615 615 615 615 615 615 30 24 615 615 615 615 43 615 615 38 615 615 615 615 21 615 615 615 615 615 615 615 14 21 22 615 615 32 615 615 615 13 615 615 615 16 19 615 31 615 615 615 615 615 615 615 615 23 615 615 615 615 615 615 46 30 615 615 17 615 34
615 615 0 30 16 615 615 615 615 615 26 615 615 615 615 615 615 615 615 615 615 9 615 8 32 615 21 25 615 615 26 615 25 37 19 615 24 615 615 23 31 615 29 615 615 615 615 615 615 32 25 615 615 30 25 615 615 30 37 615 615 615 31 615 615 615 23 37 615 615 615 615 615 615 9 615 615 25 34 19 615 615 615 48 615 615 615 615 615 41 8 615 43 615 615 615 615 615
615 615 30 0 615 3 615 615 615 615 615 615 615 615 615 615 25 615 615 615 615 615 615 23 615 615 12 615 23 615 615 19 10 615 11 7 8 615 615 615 615 615 16 615 615 16 615 615 615 615 615 615 615 615 615 615 7 615 615 615 19 615 615 615 615 615 615 615 28 615 1 615 615 22 23 10 615 11 615 615 24 615 615 615 20 615 615 615 615 615 23 615 18 615 615 615 615 615
615 615 16 615 0 615 615 615 615 615 615 615 615 615 615 615 615 615 615 615 615 9 615 13 16 615 29 39 12 615 9 615 615 615 24 615 24 615 615 615 615 615 615 615 8 19 615 615 615 615 615 615 615 615 615 615 615 14 615 615 615 615 615 615 615 615 615 615 615 615 615 615 615 615 12 615 615 615 615 3 615 615 17 615 615 615 615 615 615 615 12 615 615 615 615 615 615 615
615 615 615 3 615 0 615 615 615 615 615 615 615 615 615 615 615 615 21 615 615 615 615 615 615 615 615 615 615 615 615 17 13 615 13 5 9 615 615 615 615 615 615 615 615 16 615 615 615 615 615 615 615 615 615 615 5 615 615 615 17 615 615 615 615 615 615 615 26 615 2 615 615 20 25 7 615 14 615 615 615 615 615 615 17 22 19 615 615 615 615 615 18 615 615 615 21 615
34 615 615 615 615 615 0 615 615 15 25 40 615 615 615 28 615 615 615 615 43 615 615 615 615 615 615 33 615 615 615 615 615 31 615 615 615 615 615 25 17 615 615 615 615 615 615 4 19 32 24 615 615 20 32 22 615 615 21 615 615 615 16 49 615 615 25 28 615 39 615 615 615 615 615 615 615 615 23 615 615 32 615 19 615 615 615 615 615 21 615 615 615 615 615 615 615 615
615 615 615 615 615 615 615 0 615 56 615 33 615 615 34 615 615 615 615 37 31 615 615 615 615 615 615 615 615 615 615 615 615 615 615 615 615 615 615 615 615 29 615 16 615 615 20 615 615 615 615 57 615 615 615 615 615 615 615 615 615 45 615 26 29 28 615 615 615 38 615 32 42 615 615 615 28 615 615 615 615 38 615 90 615 615 615 615 28 615 615 615 615 615 615 615 615 28
615 14 615 615 615 615 615 615 0 615 615 615 615 24 615 615 14 615 615 15 615 615 615 615 615 615 615 615 615 615 615 615 615 615 615 615 615 41 27 615 615 32 32 39 615 615 31 615 615 615 615 32 615 615 615 615 25 615 615 28 12 9 615 615 32 615 615 615 6 33 615 615 16 9 615 25 615 615 615 615 19 615 615 615 21 615 615 615 28 615 615 615 17 615 615 25 615 24
26 615 615 615 615 615 15 56 615 0 31 25 615 615 23 18 615 615 615 615 28 615 615 615 615 21 615 615 615 615 615 615 615 30 615 615 615 615 615 37 30 615 615 615 615 615 615 11 34 33 31 615 615 615 615 8 615 615 615 615 615 615 27 34 615 29 615 27 615 29 615 25 615 615 615 615 35 615 615 615 43 18 615 34 615 615 615 615 615 36 615 615 615 615 615 615 615 615
27 615 26 615 615 615 25 615 615 31 0 615 615 615 615 28 615 615 615 615 615 615 615 28 615 615 20 27 615 615 615 615 615 16 615 615 615 615 615 15 16 615 17 615 615 615 615 27 32 12 4 615 615 18 8 615 615 615 615 615 615 615 11 615 615 615 4 13 615 615 615 615 615 615 615 615 615 20 615 615 30 615 615 615 615 615 615 615 615 615 615 615 615 615 615 615 615 615
28 615 615 615 615 615 40 33 615 25 615 0 615 615 13 22 615 615 615 615 3 615 615 615 615 17 615 615 615 615 615 615 615 615 615 615 615 615 615 615 615 615 615 615 615 615 37 37 615 615 615 615 615 615 615 19 615 615 615 615 615 615 615 9 615 6 615 39 615 25 615 11 615 615 615 615 22 615 615 615 615 10 615 59 615 615 615 615 615 615 615 615 615 615 615 615 615 615
615 615 615 615 615 615 615 615 615 615 615 615 0 615 615 615 615 615 36 615 615 615 12 615 21 615 615 615 615 24 24 615 615 615 615 615 615 56 46 615 615 615 615 615 26 29 615 615 615 615 615 615 8 615 615 615 615 18 615 80 615 615 615 615 615 615 615 615 615 615 615 615 615 615 615 615 615 615 615 615 615 615 22 615 48 28 615 25 615 615 615 29 615 12 7 56 23 615
615 11 615 615 615 615 615 615 24 615 615 615 615 0 615 615 615 12 615 27 615 615 615 615 615 615 615 615 615 615 615 615 615 615 615 615 615 32 33 615 615 615 615 42 615 615 40 615 615 615 615 10 615 615 615 615 615 615 615 4 615 31 615 615 30 615 615 615 24 615 615 615 18 30 615 615 615 615 615 615 615 615 615 615 33 615 615 615 615 615 615 615 615 615 615 24 615 615
15 615 615 615 615 615 615 34 615 23 615 13 615 615 0 11 34 615 615 615 14 615 615 615 615 5 615 615 615 615 615 615 615 615 615 615 615 615 615 615 615 15 615 615 615 615 31 615 615 615 615 615 615 615 615 16 615 615 615 615 615 615 615 19 615 11 615 27 615 12 615 2 615 615 615 615 13 615 615 615 32 7 615 615 615 615 615 615 20 615 615 615 615 615 615 615 615 615
9 615 615 615 615 615 28 615 615 18 28 22 615 615 11 0 30 615 615 615 24 615 615 615 615 6 615 615 615 615 615 615 615 18 615 615 615 615 615 615 36 19 31 615 615 615 615 26 615 23 615 615 615 615 615 12 615 615 615 615 615 615 31 615 615 22 615 17 615 11 615 13 615 615 615 615 19 615 615 615 27 12 615 47 615 615 615 615 24 615 615 615 34 615 615 615 615 615
21 28 615 25 615 615 615 615 14 615 615 615 615 615 34 30 0 615 615 20 615 615 615 615 615 32 27 615 615 615 615 615 23 21 615 615 615 615 615 615 615 24 20 615 615 615 32 615 615 23 615 615 615 615 615 615 22 615 615 615 15 9 615 615 39 615 615 24 17 22 615 615 27 13 615 24 26 23 615 615 4 615 615 615 26 615 615 615 23 615 615 615 7 615 615 36 615 22
615 23 615 615 615 615 615 615 615 615 615 615 615 12 615 615 615 0 615 615 615 615 615 615 615 615 615 615 615 615 615 615 615 615 615 615 615 32 40 615 615 615 615 615 615 615 615 615 615 615 615 10 615 615 615 615 615 615 615 9 615 615 615 615 37 615 615 615 35 615 615 615 29 615 615 615 615 615 615 615 615 615 615 615 43 615 615 615 615 615 615 57 615 615 615 30 615 615
615 34 615 615 615 21 615 615 615 615 615 615 36 615 615 615 615 615 0 615 615 615 615 615 615 615 615 615 615 13 615 12 615 615 615 19 615 27 10 615 615 615 615 615 615 23 615 615 615 615 615 615 28 615 615 615 18 615 615 44 23 615 615 615 615 615 615 615 28 615 615 615 615 26 615 16 615 615 615 615 615 615 615 615 13 9 4 13 615 615 615 15 32 615 35 20 16 615
615 22 615 615 615 615 615 37 15 615 615 615 615 27 615 615 20 615 615 0 615 615 615 615 615 615 615 615 615 615 615 615 615 615 615 615 615 615 615 615 615 23 615 25 615 615 17 615 615 615 615 31 615 615 615 615 615 615 615 31 615 11 615 615 19 615 615 615 20 28 615 615 10 23 615 615 25 615 615 615 615 615 615 615 615 615 615 615 18 615 615 615 26 615 615 38 615 12
615 615 615 615 615 615 43 31 615 28 615 3 615 615 14 24 615 615 615 615 0 615 615 615 615 615 615 615 615 615 615 615 615 615 615 615 615 615 615 615 615 615 615 615 615 615 36 39 62 615 615 615 615 615 615 21 615 615 615 615 615 615 615 6 615 5 615 41 615 615 615 13 615 615 615 615 23 615 615 615 615 12 615 62 615 615 615 615 615 615 615 615 615 615 615 615 615 615
615 615 9 615 9 615 615 615 615 615 615 615 615 615 615 615 615 615 615 615 615 0 35 10 23 615 27 30 19 615 17 615 31 615 23 615 26 615 615 32 615 615 35 615 16 615 615 615 615 615 34 615 615 38 33 615 615 23 615 615 615 615 615 615 615 615 32 615 615 615 615 615 615 615 10 615 615 615 41 11 615 615 25 615 615 615 615 615 615 48 10 615 615 32 33 615 615 615
615 615 615 615 615 615 615 615 615 615 615 615 12 615 615 615 615 615 615 615 615 35 0 615 13 615 615 615 615 615 18 615 615 615 615 615 615 615 615 615 615 615 615 615 25 615 615 615 615 615 615 615 20 615 615 615 615 13 615 615 615 615 615 615 615 615 615 615 615 615 615 615 615 615 615 615 615 615 615 615 615 615 26 615 615 615 615 615 615 615 615 40 615 3 11 615 615 615
615 615 8 23 13 615 615 615 615 615 28 615 615 615 615 615 615 615 615 615 615 10 615 0 28 615 18 32 16 615 22 615 21 615 13 23 17 615 615 29 615 615 26 615 15 18 615 615 615 31 615 615 615 615 25 615 615 615 615 615 615 615 615 615 615 615 26 615 615 615 24 615 615 615 1 615 615 22 40 15 615 615 615 615 615 615 615 615 615 615 1 615 38 615 615 615 615 615
615 615 32 615 16 615 615 615 615 615 615 615 21 615 615 615 615 615 615 615 615 23 13 28 0 615 44 53 20 615 6 615 615 615 615 615 615 615 615 55 615 615 615 615 17 615 615 615 615 615 615 615 26 615 615 615 615 6 615 615 615 615 615 615 615 615 54 615 615 615 615 615 615 615 615 615 615 615 63 13 615 615 22 615 615 615 615 615 615 615 27 615 615 10 15 615 615 615
11 615 615 615 615 615 615 615 615 21 615 17 615 615 5 6 32 615 615 615 615 615 615 615 615 0 615 615 615 615 615 615 615 23 615 615 615 615 615 615 615 15 615 615 615 615 615 615 615 615 615 615 615 615 615 14 615 615 615 615 615 615 615 615 615 16 615 23 615 10 615 7 615 615 615 615 14 615 615 615 29 8 615 615 615 615 615 615 21 615 615 615 615 615 615 615 615 615
615 615 21 12 29 615 615 615 615 615 20 615 615 615 615 615 27 615 615 615 615 27 615 18 44 615 0 38 615 615 615 615 4 21 7 615 12 615 615 30 615 615 9 615 615 21 615 615 615 16 22 615 615 615 12 615 19 615 615 615 615 615 615 615 615 615 20 23 615 615 12 615 615 615 18 615 615 4 615 615 24 615 615 615 615 615 615 615 615 615 18 615 21 615 615 615 615 615
615 615 25 615 39 615 33 615 615 615 27 615 615 615 615 615 615 615 615 615 615 30 615 32 53 615 38 0 615 615 47 615 615 615 39 615 615 615 615 12 17 615 615 615 45 615 615 37 22 615 23 615 615 14 33 615 615 53 15 615 615 615 21 615 615 615 23 615 615 615 615 615 615 615 33 615 615 615 11 42 615 615 615 25 615 615 615 615 615 19 33 615 615 62 615 615 615 615
615 615 615 23 12 615 615 615 615 615 615 615 615 615 615 615 615 615 615 615 615 19 615 16 20 615 615 615 0 25 16 18 615 615 19 19 16 615 615 615 615 615 615 615 4 8 615 615 615 615 615 615 24 615 615 615 615 15 615 615 615 615 615 615 615 615 615 615 615 615 23 615 615 615 15 615 615 615 615 12 615 615 5 615 615 23 615 615 615 615 15 615 615 23 19 615 16 615
615 615 615 615 615 615 615 615 615 615 615 615 24 615 615 615 615 615 13 615 615 615 615 615 615 615 615 615 25 0 615 11 615 615 615 23 615 34 23 615 615 615 615 615 615 21 615 615 615 615 615 615 15 615 615 615 615 32 615 615 615 615 615 615 615 615 615 615 615 615 615 615 615 615 615 25 615 615 615 615 615 615 20 615 615 6 11 3 615 615 615 9 615 615 24 615 9 615
615 615 26 615 9 615 615 615 615 615 615 615 24 615 615 615 615 615 615 615 615 17 18 22 6 615 615 47 16 615 0 615 615 615 615 615 615 615 615 49 615 615 615 615 12 24 615 615 615 615 615 615 28 615 615 615 615 6 615 615 615 615 615 615 615 615 615 615 615 615 615 615 615 615 21 615 615 615 615 7 615 615 18 615 615 615 615 615 615 615 21 615 615 15 18 615 615 615
615 615 615 19 615 17 615 615 615 615 615 615 615 615 615 615 615 615 12 615 615 615 615 615 615 615 615 615 18 11 615 0 615 615 24 12 17 615 22 615 615 615 615 615 22 12 615 615 615 615 615 615 22 615 615 615 18 615 615 615 28 615 615 615 615 615 615 615 615 615 18 615 615 615 29 16 615 615 615 615 615 615 14 615 21 6 8 13 615 615 615 19 615 615 26 615 5 615
615 615 25 10 615 13 615 615 615 615 615 615 615 615 615 615 23 615 615 615 615 31 615 21 615 615 4 615 615 615 615 615 0 19 9 16 13 615 615 615 615 615 6 615 615 22 615 615 615 15 615 615 615 615 13 615 16 615 615 615 24 615 615 615 615 615 615 615 615 615 11 615 615 26 22 19 615 1 615 615 21 615 615 615 615 615 615 615 615 615 22 615 17 615 615 615 615 615
13 615 37 615 615 615 31 615 615 30 16 615 615 615 615 18 21 615 615 615 615 615 615 615 615 23 21 615 615 615 615 615 19 0 615 615 615 615 615 615 615 615 13 615 615 615 615 615 615 6 19 615 615 615 12 28 615 615 615 615 615 615 24 615 615 615 19 4 615 19 615 615 615 31 615 615 615 18 615 615 16 615 615 615 615 615 615 615 31 615 615 615 20 615 615 615 615 615
615 615 19 11 24 13 615 615 615 615 615 615 615 615 615 615 615 615 615 615 615 23 615 13 615 615 7 39 19 615 615 24 9 615 0 13 7 615 615 615 615 615 15 615 21 15 615 615 615 615 615 615 615 615 18 615 18 615 615 615 29 615 615 615 615 615 25 615 615 615 11 615 615 615 13 615 615 10 615 615 615 615 22 615 615 615 615 615 615 615 13 615 25 615 615 615 615 615
615 615 615 7 615 5 615 615 615 615 615 615 615 615 615 615 615 615 19 615 615 615 615 23 615 615 615 615 19 23 615 12 16 615 13 0 6 615 615 615 615 615 615 615 23 11 615 615 615 615 615 615 32 615 615 615 9 615 615 615 22 615 615 615 615 615 615 615 615 615 6 615 615 615 23 10 615 615 615 615 615 615 18 615 19 18 16 615 615 615 615 615 23 615 615 615 16 615
615 615 24 8 24 9 615 615 615 615 615 615 615 615 615 615 615 615 615 615 615 26 615 17 615 615 12 615 16 615 615 17 13 615 7 6 0 615 615 615 615 615 615 615 19 9 615 615 615 615 615 615 615 615 615 615 14 615 615 615 615 615 615 615 615 615 615 615 615 615 8 615 615 615 16 15 615 14 615 615 615 615 17 615 615 23 22 615 615 615 17 615 25 615 615 615 19 615
615 30 615 615 615 615 615 615 41 615 615 615 56 32 615 615 615 32 27 615 615 615 615 615 615 615 615 615 615 34 615 615 615 615 615 615 615 0 20 615 615 615 615 615 615 615 615 615 615 615 615 40 48 615 615 615 615 615 615 30 38 615 615 615 615 615 615 615 35 615 615 615 46 615 615 38 615 615 615 615 615 615 52 615 29 34 615 32 615 615 615 27 615 66 58 16 615 615
615 24 615 615 615 615 615 615 27 615 615 615 46 33 615 615 615 40 10 615 615 615 615 615 615 615 615 615 615 23 615 22 615 615 615 615 615 20 0 615 615 615 615 615 615 615 615 615 615 615 615 43 38 615 615 615 21 615 615 33 20 615 615 615 615 615 615 615 21 615 615 615 615 22 615 18 615 615 615 615 615 615 615 615 10 19 14 22 615 615 615 21 615 615 46 10 615 615
615 615 23 615 615 615 25 615 615 37 15 615 615 615 615 615 615 615 615 615 615 32 615 29 55 615 30 12 615 615 49 615 615 615 615 615 615 615 615 0 8 615 31 615 615 615 615 615 22 27 12 615 615 7 22 615 615 615 14 615 615 615 10 615 615 615 12 28 615 615 615 615 615 615 615 615 615 615 12 615 615 615 615 25 615 615 615 615 615 19 30 615 615 615 615 615 615 615
615 615 31 615 615 615 17 615 615 30 16 615 615 615 615 36 615 615 615 615 615 615 615 615 615 615 615 17 615 615 615 615 615 615 615 615 615 615 615 8 0 615 615 615 615 615 615 21 16 27 13 615 615 4 615 615 615 615 11 615 615 615 6 615 615 615 14 27 615 615 615 615 615 615 615 615 615 615 11 615 615 615 615 19 615 615 615 615 615 15 615 615 615 615 615 615 615 615
15 615 615 615 615 615 615 29 32 615 615 615 615 615 15 19 24 615 615 23 615 615 615 615 615 15 615 615 615 615 615 615 615 615 615 615 615 615 615 615 615 0 615 28 615 615 18 615 615 615 615 615 615 615 615 615 615 615 615 615 615 23 615 615 615 21 615 615 615 10 615 15 615 615 615 615 2 615 615 615 24 21 615 615 615 615 615 615 5 615 615 615 31 615 615 615 615 11
25 615 29 16 615 615 615 615 32 615 17 615 615 615 615 31 20 615 615 615 615 35 615 26 615 615 9 615 615 615 615 615 6 13 15 615 615 615 615 31 615 615 0 615 615 615 615 615 615 9 21 615 615 615 9 615 20 615 615 615 25 615 28 615 615 615 19 15 615 30 615 615 615 26 615 615 615 6 615 615 17 615 615 615 615 615 615 615 39 615 615 615 16 615 615 615 615 615
615 43 615 615 615 615 615 16 39 615 615 615 615 42 615 615 615 615 615 25 615 615 615 615 615 615 615 615 615 615 615 615 615 615 615 615 615 615 615 615 615 28 615 0 615 615 10 615 615 615 615 40 615 615 615 615 615 615 615 45 615 34 615 39 13 37 615 615 615 615 615 38 27 615 615 615 28 615 615 615 615 615 615 615 615 615 615 615 24 615 615 615 615 615 615 615 615 21
615 615 615 615 8 615 615 615 615 615 615 615 26 615 615 615 615 615 615 615 615 16 25 15 17 615 615 45 4 615 12 22 615 615 21 23 19 615 615 615 615 615 615 615 0 12 615 615 615 615 615 615 25 615 615 615 615 12 615 615 615 615 615 615 615 615 615 615 615 615 615 615 615 615 14 615 615 615 615 8 615 615 9 615 615 615 615 615 615 615 14 615 615 21 19 615 20 615
615 615 615 16 19 16 615 615 615 615 615 615 29 615 615 615 615 615 23 615 615 615 615 18 615 615 21 615 8 21 24 12 22 615 15 11 9 615 615 615 615 615 615 615 12 0 615 615 615 615 615 615 25 615 615 615 20 23 615 615 615 615 615 615 615 615 615 615 615 615 16 615 615 615 17 20 615 615 615 20 615 615 8 615 615 18 19 24 615 615 17 615 615 615 24 615 12 615
615 38 615 615 615 615 615 20 31 615 615 37 615 40 31 615 32 615 615 17 36 615 615 615 615 615 615 615 615 615 615 615 615 615 615 615 615 615 615 615 615 18 615 10 615 615 0 615 615 615 615 40 615 615 615 615 615 615 615 615 615 25 615 35 16 32 615 615 615 27 615 30 22 615 615 615 19 615 615 615 615 615 615 615 615 615 615 615 13 615 615 615 615 615 615 615 615 10
33 615 615 615 615 615 4 615 615 11 27 37 615 615 615 26 615 615 615 615 39 615 615 615 615 615 615 37 615 615 615 615 615 615 615 615 615 615 615 615 21 615 615 615 615 615 615 0 23 615 615 615 615 615 615 18 615 615 25 615 615 615 20 45 615 40 615 28 615 615 615 615 615 615 615 615 615 615 615 615 615 615 615 23 615 615 615 615 615 25 615 615 615 615 615 615 615 615
615 615 615 615 615 615 19 615 615 34 32 615 615 615 615 615 615 615 615 615 62 615 615 615 615 615 615 22 615 615 615 615 615 615 615 615 615 615 615 22 16 615 615 615 615 615 615 23 0 615 29 615 615 15 615 615 615 615 7 615 615 615 21 615 615 615 615 41 615 615 615 615 615 615 615 615 615 615 11 615 615 615 615 3 615 615 615 615 615 3 615 615 615 615 615 615 615 615
19 615 32 615 615 615 32 615 615 33 12 615 615 615 615 23 23 615 615 615 615 615 615 31 615 615 16 615 615 615 615 615 15 6 615 615 615 615 615 27 27 615 9 615 615 615 615 615 615 0 15 615 615 615 7 615 615 615 615 615 615 615 22 615 615 615 15 7 615 25 615 615 615 615 615 615 615 14 615 615 19 615 615 615 615 615 615 615 615 615 615 615 21 615 615 615 615 615
615 615 25 615 615 615 24 615 615 31 4 615 615 615 615 615 615 615 615 615 615 34 615 615 615 615 22 23 615 615 615 615 615 19 615 615 615 615 615 12 13 615 21 615 615 615 615 615 29 15 0 615 615 15 12 615 615 615 23 615 615 615 8 615 615 615 2 17 615 615 615 615 615 615 615 615 615 615 22 615 615 615 615 615 615 615 615 615 615 615 615 615 615 615 615 615 615 615
615 21 615 615 615 615 615 57 32 615 615 615 615 10 615 615 615 10 615 31 615 615 615 615 615 615 615 615 615 615 615 615 615 615 615 615 615 40 43 615 615 615 615 40 615 615 40 615 615 615 615 0 615 615 615 615 615 615 615 10 615 37 615 615 27 615 615 615 33 615 615 615 21 615 615 615 55 615 615 615 615 615 615 615 615 615 615 615 615 615 615 615 615 615 615 33 615 42
615 615 615 615 615 615 615 615 615 615 615 615 8 615 615 615 615 615 28 615 615 615 20 615 26 615 615 615 24 15 28 22 615 615 615 32 615 48 38 615 615 615 615 615 25 25 615 615 615 615 615 615 0 615 615 615 615 22 615 615 615 615 615 615 615 615 615 615 615 615 615 615 615 615 39 615 615 615 615 615 615 615 19 615 41 20 26 16 615 615 615 20 615 19 11 47 16 615
615 615 30 615 615 615 20 615 615 615 18 615 615 615 615 615 615 615 615 615 615 38 615 615 615 615 615 14 615 615 615 615 615 615 615 615 615 615 615 7 4 615 615 615 615 615 615 615 15 615 15 615 615 0 615 615 615 615 9 615 615 615 9 615 615 615 16 30 615 615 615 615 615 615 615 615 615 615 8 615 615 615 615 18 615 615 615 615 615 13 615 615 615 615 615 615 615 615
26 615 25 615 615 615 32 615 615 615 8 615 615 615 615 615 615 615 615 615 615 33 615 25 615 615 12 33 615 615 615 615 13 12 18 615 615 615 615 22 615 615 9 615 615 615 615 615 615 7 12 615 615 615 0 615 615 615 615 615 615 615 19 615 615 615 10 12 615 615 615 615 615 615 26 615 615 12 34 615 24 615 615 615 615 615 615 615 615 615 26 615 24 615 615 615 615 615
21 615 615 615 615 615 22 615 615 8 615 19 615 615 16 12 615 615 615 615 21 615 615 615 615 14 615 615 615 615 615 615 615 28 615 615 615 615 615 615 615 615 615 615 615 615 615 18 615 615 615 615 615 615 615 0 615 615 615 615 615 615 31 27 615 22 615 25 615 23 615 17 615 615 615 615 28 615 615 615 615 11 615 41 615 615 615 615 615 615 615 615 615 615 615 615 615 615
615 615 615 7 615 5 615 615 25 615 615 615 615 615 615 615 22 615 18 615 615 615 615 615 615 615 19 615 615 615 615 18 16 615 18 9 14 615 21 615 615 615 20 615 615 20 615 615 615 615 615 615 615 615 615 615 0 615 615 615 13 615 615 615 615 615 615 615 21 615 7 615 615 16 615 3 615 17 615 615 23 615 615 615 12 615 17 615 615 615 615 615 16 615 615 28 615 615
615 615 30 615 14 615 615 615 615 615 615 615 18 615 615 615 615 615 615 615 615 23 13 615 6 615 615 53 15 32 6 615 615 615 615 615 615 615 615 615 615 615 615 615 12 23 615 615 615 615 615 615 22 615 615 615 615 0 615 615 615 615 615 615 615 615 615 615 615 615 615 615 615 615 25 615 615 615 615 11 615 615 16 615 615 615 615 615 615 615 615 40 615 10 12 615 25 615
615 615 37 615 615 615 21 615 615 615 615 615 615 615 615 615 615 615 615 615 615 615 615 615 615 615 615 15 615 615 615 615 615 615 615 615 615 615 615 14 11 615 615 615 615 615 615 25 7 615 23 615 615 9 615 615 615 615 0 615 615 615 17 615 615 615 615 38 615 615 615 615 615 615 615 615 615 615 4 615 615 615 615 11 615 615 615 615 615 5 615 615 615 615 615 615 615 615
615 14 615 615 615 615 615 615 28 615 615 615 80 4 615 615 615 9 44 31 615 615 615 615 615 615 615 615 615 615 615 615 615 615 615 615 615 30 33 615 615 615 615 45 615 615 615 615 615 615 615 10 615 615 615 615 615 615 615 0 35 615 615 615 33 615 615 615 27 615 615 615 22 33 615 615 615 615 615 615 615 615 615 615 35 615 615 615 615 615 615 53 615 615 615 24 615 615
615 21 615 19 615 17 615 615 12 615 615 615 615 615 615 615 15 615 23 615 615 615 615 615 615 615 615 615 615 615 615 28 24 615 29 22 615 38 20 615 615 615 25 615 615 615 615 615 615 615 615 615 615 615 615 615 13 615 615 35 0 17 615 615 615 615 615 615 9 37 19 615 28 3 615 12 615 25 615 615 18 615 615 615 11 30 24 615 615 615 615 38 12 615 615 22 615 615
26 22 615 615 615 615 615 45 9 615 615 615 615 31 615 615 9 615 615 11 615 615 615 615 615 615 615 615 615 615 615 615 615 615 615 615 615 615 615 615 615 23 615 34 615 615 25 615 615 615 615 37 615 615 615 615 615 615 615 615 17 0 615 615 30 615 615 615 14 24 615 615 18 14 615 615 25 615 615 615 13 615 615 615 615 615 615 615 20 615 615 615 15 615 615 615 615 16
33 615 31 615 615 615 16 615 615 27 11 615 615 615 615 31 615 615 615 615 615 615 615 615 615 615 615 21 615 615 615 615 615 24 615 615 615 615 615 10 6 615 28 615 615 615 615 20 21 22 8 615 615 9 19 31 615 615 17 615 615 615 0 615 615 615 10 21 615 615 615 615 615 615 615 615 615 615 17 615 615 615 615 24 615 615 615 615 615 20 615 615 615 615 615 615 615 615
615 615 615 615 615 615 49 26 615 34 615 9 615 615 19 615 615 615 615 615 6 615 615 615 615 615 615 615 615 615 615 615 615 615 615 615 615 615 615 615 615 615 615 39 615 615 35 45 615 615 615 615 615 615 615 27 615 615 615 615 615 615 615 0 615 7 615 615 615 615 615 17 615 615 615 615 24 615 615 615 615 18 615 68 615 615 615 615 30 615 615 615 615 615 615 615 615 615
615 32 615 615 615 615 615 29 32 615 615 615 615 30 615 615 39 37 615 19 615 615 615 615 615 615 615 615 615 615 615 615 615 615 615 615 615 615 615 615 615 615 615 13 615 615 16 615 615 615 615 27 615 615 615 615 615 615 615 33 615 30 615 615 0 47 615 615 37 615 615 615 17 615 615 615 34 615 615 615 615 615 615 615 615 615 615 615 27 615 615 615 615 615 615 615 615 22
615 615 615 615 615 615 615 28 615 29 615 6 615 615 11 22 615 615 615 615 5 615 615 615 615 16 615 615 615 615 615 615 615 615 615 615 615 615 615 615 615 21 615 37 615 615 32 40 615 615 615 615 615 615 615 22 615 615 615 615 615 615 615 7 47 0 615 615 615 22 615 9 615 615 615 615 18 615 615 615 615 12 615 63 615 615 615 615 25 615 615 615 615 615 615 615 615 30
615 615 23 615 615 615 25 615 615 615 4 615 615 615 615 615 615 615 615 615 615 32 615 26 54 615 20 23 615 615 615 615 615 19 25 615 615 615 615 12 14 615 19 615 615 615 615 615 615 15 2 615 615 16 10 615 615 615 615 615 615 615 10 615 615 615 0 17 615 615 615 615 615 615 615 615 615 22 23 615 615 615 615 615 615 615 615 615 615 29 615 615 615 615 615 615 615 615
14 615 37 615 615 615 28 615 615 27 13 39 615 615 27 17 24 615 615 615 41 615 615 615 615 23 23 615 615 615 615 615 615 4 615 615 615 615 615 28 27 615 15 615 615 615 615 28 41 7 17 615 615 30 12 25 615 615 38 615 615 615 21 615 615 615 17 0 615 20 615 615 615 615 615 615 615 615 615 615 20 29 615 43 615 615 615 615 615 615 615 615 24 615 615 615 615 615
615 13 615 28 615 26 615 615 6 615 615 615 615 24 615 615 17 35 28 20 615 615 615 615 615 615 615 615 615 615 615 615 615 615 615 615 615 35 21 615 615 615 615 615 615 615 615 615 615 615 615 33 615 615 615 615 21 615 615 27 9 14 615 615 37 615 615 615 0 615 615 615 20 7 615 21 615 615 615 615 21 615 615 615 15 615 30 615 34 615 615 42 17 615 615 20 615 615
6 615 615 615 615 615 39 38 33 29 615 25 615 615 12 11 22 615 615 28 615 615 615 615 615 10 615 615 615 615 615 615 615 19 615 615 615 615 615 615 615 10 30 615 615 615 27 615 615 25 615 615 615 615 615 23 615 615 615 615 37 24 615 615 615 22 615 20 615 0 615 14 615 35 615 615 10 35 615 615 20 18 615 615 615 615 615 615 14 615 615 615 27 615 615 615 615 19
615 615 615 1 615 2 615 615 615 615 615 615 615 615 615 615 615 615 615 615 615 615 615 24 615 615 12 615 23 615 615 18 11 615 11 6 8 615 615 615 615 615 615 615 615 16 615 615 615 615 615 615 615 615 615 615 7 615 615 615 19 615 615 615 615 615 615 615 615 615 0 615 615 615 23 9 615 615 615 615 615 615 615 615 615 615 21 615 615 615 615 615 18 615 615 615 22 615
615 615 615 615 615 615 615 32 615 25 615 11 615 615 2 13 615 615 615 615 13 615 615 615 615 7 615 615 615 615 615 615 615 615 615 615 615 615 615 615 615 15 615 38 615 615 30 615 615 615 615 615 615 615 615 17 615 615 615 615 615 615 615 17 615 9 615 615 615 14 615 0 615 615 615 615 13 615 615 615 615 7 615 58 615 615 615 615 20 615 615 615 615 615 615 615 615 615
615 16 615 615 615 615 615 42 16 615 615 615 615 18 615 615 27 29 615 10 615 615 615 615 615 615 615 615 615 615 615 615 615 615 615 615 615 46 615 615 615 615 615 27 615 615 22 615 615 615 615 21 615 615 615 615 615 615 615 22 28 18 615 615 17 615 615 615 20 615 615 615 0 25 615 615 615 615 615 615 615 615 615 615 35 615 615 615 27 615 615 615 615 615 615 33 615 21
34 19 615 22 615 20 615 615 9 615 615 615 615 30 615 615 13 615 26 23 615 615 615 615 615 615 615 615 615 615 615 615 26 31 615 615 615 615 22 615 615 615 26 615 615 615 615 615 615 615 615 615 615 615 615 615 16 615 615 33 3 14 615 615 615 615 615 615 7 35 615 615 25 0 615 16 615 26 615 615 16 615 615 615 13 615 615 615 33 615 615 615 11 615 615 23 615 31
615 615 9 23 12 25 615 615 615 615 615 615 615 615 615 615 615 615 615 615 615 10 615 1 615 615 18 33 15 615 21 29 22 615 13 23 16 615 615 615 615 615 615 615 14 17 615 615 615 615 615 615 39 615 26 615 615 25 615 615 615 615 615 615 615 615 615 615 615 615 23 615 615 615 0 32 615 22 615 14 615 615 20 615 615 615 615 615 615 615 1 615 38 615 33 615 29 615
615 31 615 10 615 7 615 615 25 615 615 615 615 615 615 615 24 615 16 615 615 615 615 615 615 615 615 615 615 25 615 16 19 615 615 10 15 38 18 615 615 615 615 615 615 20 615 615 615 615 615 615 615 615 615 615 3 615 615 615 12 615 615 615 615 615 615 615 21 615 9 615 615 16 32 0 615 615 615 615 615 615 26 615 10 19 15 27 615 615 615 30 18 615 615 26 21 615
16 615 615 615 615 615 615 28 615 35 615 22 615 615 13 19 26 615 615 25 23 615 615 615 615 14 615 615 615 615 615 615 615 615 615 615 615 615 615 615 615 2 615 28 615 615 19 615 615 615 615 55 615 615 615 28 615 615 615 615 615 25 615 24 34 18 615 615 615 10 615 13 615 615 615 615 0 615 615 615 26 20 615 66 615 615 615 615 7 615 615 615 615 615 615 615 615 13
31 615 25 11 615 14 615 615 615 615 20 615 615 615 615 615 23 615 615 615 615 615 615 22 615 615 4 615 615 615 615 615 1 18 10 615 14 615 615 615 615 615 6 615 615 615 615 615 615 14 615 615 615 615 12 615 17 615 615 615 25 615 615 615 615 615 22 615 615 35 615 615 615 26 22 615 615 0 615 615 20 615 615 615 615 615 615 615 615 615 615 615 17 615 615 615 615 615
615 615 34 615 615 615 23 615 615 615 615 615 615 615 615 615 615 615 615 615 615 41 615 40 63 615 615 11 615 615 615 615 615 615 615 615 615 615 615 12 11 615 615 615 615 615 615 615 11 615 22 615 615 8 34 615 615 615 4 615 615 615 17 615 615 615 23 615 615 615 615 615 615 615 615 615 615 615 0 615 615 615 615 14 615 615 615 615 615 8 615 615 615 615 615 615 615 615
615 615 19 615 3 615 615 615 615 615 615 615 615 615 615 615 615 615 615 615 615 11 615 15 13 615 615 42 12 615 7 615 615 615 615 615 615 615 615 615 615 615 615 615 8 20 615 615 615 615 615 615 615 615 615 615 615 11 615 615 615 615 615 615 615 615 615 615 615 615 615 615 615 615 14 615 615 615 615 0 615 615 17 615 615 615 615 615 615 615 14 615 615 21 22 615 615 615
18 615 615 24 615 615 615 615 19 43 30 615 615 615 32 27 4 615 615 615 615 615 615 615 615 29 24 615 615 615 615 615 21 16 615 615 615 615 615 615 615 24 17 615 615 615 615 615 615 19 615 615 615 615 24 615 23 615 615 615 18 13 615 615 615 615 615 20 21 20 615 615 615 16 615 615 26 20 615 615 0 37 615 615 615 615 615 615 24 615 615 615 7 615 615 615 615 24
19 615 615 615 615 615 32 38 615 18 615 10 615 615 7 12 615 615 615 615 12 615 615 615 615 8 615 615 615 615 615 615 615 615 615 615 615 615 615 615 615 21 615 615 615 615 615 615 615 615 615 615 615 615 615 11 615 615 615 615 615 615 615 18 615 12 615 29 615 18 615 7 615 615 615 615 20 615 615 615 37 0 615 52 615 615 615 615 615 615 615 615 615 615 615 615 615 615
615 615 615 615 17 615 615 615 615 615 615 615 22 615 615 615 615 615 615 615 615 25 26 615 22 615 615 615 5 20 18 14 615 615 22 18 17 52 615 615 615 615 615 615 9 8 615 615 615 615 615 615 19 615 615 615 615 16 615 615 615 615 615 615 615 615 615 615 615 615 615 615 615 615 20 26 615 615 615 17 615 615 0 615 615 18 22 22 615 615 20 29 615 22 17 615 11 615
615 615 48 615 615 615 19 90 615 34 615 59 615 615 615 47 615 615 615 615 62 615 615 615 615 615 615 25 615 615 615 615 615 615 615 615 615 615 615 25 19 615 615 615 615 615 615 23 3 615 615 615 615 18 615 41 615 615 11 615 615 615 24 68 615 63 615 43 615 615 615 58 615 615 615 615 66 615 14 615 615 52 615 0 615 615 615 615 615 6 615 615 615 615 615 615 615 615
615 23 615 20 615 17 615 615 21 615 615 615 48 33 615 615 26 43 13 615 615 615 615 615 615 615 615 615 615 615 615 21 615 615 615 19 615 29 10 615 615 615 615 615 615 615 615 615 615 615 615 615 41 615 615 615 12 615 615 35 11 615 615 615 615 615 615 615 15 615 615 615 35 13 615 10 615 615 615 615 615 615 615 615 0 21 15 26 615 615 615 28 21 615 615 16 615 615
615 615 615 615 615 22 615 615 615 615 615 615 28 615 615 615 615 615 9 615 615 615 615 615 615 615 615 615 23 6 615 6 615 615 615 18 23 34 19 615 615 615 615 615 615 18 615 615 615 615 615 615 20 615 615 615 615 615 615 615 30 615 615 615 615 615 615 615 615 615 615 615 615 615 615 19 615 615 615 615 615 615 18 615 21 0 5 8 615 615 615 13 615 615 27 615 7 615
615 615 615 615 615 19 615 615 615 615 615 615 615 615 615 615 615 615 4 615 615 615 615 615 615 615 615 615 615 11 615 8 615 615 615 16 22 615 14 615 615 615 615 615 615 19 615 615 615 615 615 615 26 615 615 615 17 615 615 615 24 615 615 615 615 615 615 615 30 615 21 615 615 615 615 15 615 615 615 615 615 615 22 615 15 5 0 12 615 615 615 16 615 615 615 24 12 615
615 615 615 615 615 615 615 615 615 615 615 615 25 615 615 615 615 615 13 615 615 615 615 615 615 615 615 615 615 3 615 13 615 615 615 615 615 32 22 615 615 615 615 615 615 24 615 615 615 615 615 615 16 615 615 615 615 615 615 615 615 615 615 615 615 615 615 615 615 615 615 615 615 615 615 27 615 615 615 615 615 615 22 615 26 8 12 0 615 615 615 7 615 34 26 31 12 615
19 615 615 615 615 615 615 28 28 615 615 615 615 615 20 24 23 615 615 18 615 615 615 615 615 21 615 615 615 615 615 615 615 31 615 615 615 615 615 615 615 5 39 24 615 615 13 615 615 615 615 615 615 615 615 615 615 615 615 615 615 20 615 30 27 25 615 615 34 14 615 20 27 33 615 615 7 615 615 615 24 615 615 615 615 615 615 615 0 615 615 615 30 615 615 615 615 6
615 615 41 615 615 615 21 615 615 36 615 615 615 615 615 615 615 615 615 615 615 48 615 615 615 615 615 19 615 615 615 615 615 615 615 615 615 615 615 19 15 615 615 615 615 615 615 25 3 615 615 615 615 13 615 615 615 615 5 615 615 615 20 615 615 615 29 615 615 615 615 615 615 615 615 615 615 615 8 615 615 615 615 6 615 615 615 615 615 0 615 615 615 615 615 615 615 615
615 615 8 23 12 615 615 615 615 615 615 615 615 615 615 615 615 615 615 615 615 10 615 1 27 615 18 33 15 615 21 615 22 615 13 615 17 615 615 30 615 615 615 615 14 17 615 615 615 615 615 615 615 615 26 615 615 615 615 615 615 615 615 615 615 615 615 615 615 615 615 615 615 615 1 615 615 615 615 14 615 615 20 615 615 615 615 615 615 615 0 615 615 615 615 615 615 615
615 46 615 615 615 615 615 615 615 615 615 615 29 615 615 615 615 57 15 615 615 615 40 615 615 615 615 615 615 9 615 19 615 615 615 615 615 27 21 615 615 615 615 615 615 615 615 615 615 615 615 615 20 615 615 615 615 40 615 53 38 615 615 615 615 615 615 615 42 615 615 615 615 615 615 30 615 615 615 615 615 615 29 615 28 13 16 7 615 615 615 0 615 39 31 29 18 615
25 30 43 18 615 18 615 615 17 615 615 615 615 615 615 34 7 615 32 26 615 615 615 38 615 615 21 615 615 615 615 615 17 20 25 23 25 615 615 615 615 31 16 615 615 615 615 615 615 21 615 615 615 615 24 615 16 615 615 615 12 15 615 615 615 615 615 24 17 27 18 615 615 11 38 18 615 17 615 615 7 615 615 615 21 615 615 615 30 615 615 615 0 615 615 34 615 615
615 615 615 615 615 615 615 615 615 615 615 615 12 615 615 615 615 615 615 615 615 32 3 615 10 615 615 62 23 615 15 615 615 615 615 615 615 66 615 615 615 615 615 615 21 615 615 615 615 615 615 615 19 615 615 615 615 10 615 615 615 615 615 615 615 615 615 615 615 615 615 615 615 615 615 615 615 615 615 21 615 615 22 615 615 615 615 34 615 615 615 39 615 0 8 615 29 615
615 615 615 615 615 615 615 615 615 615 615 615 7 615 615 615 615 615 35 615 615 33 11 615 15 615 615 615 19 24 18 26 615 615 615 615 615 58 46 615 615 615 615 615 19 24 615 615 615 615 615 615 11 615 615 615 615 12 615 615 615 615 615 615 615 615 615 615 615 615 615 615 615 615 33 615 615 615 615 22 615 615 17 615 615 27 615 26 615 615 615 31 615 8 0 615 21 615
615 17 615 615 615 615 615 615 25 615 615 615 56 24 615 615 36 30 20 38 615 615 615 615 615 615 615 615 615 615 615 615 615 615 615 615 615 16 10 615 615 615 615 615 615 615 615 615 615 615 615 33 47 615 615 615 28 615 615 24 22 615 615 615 615 615 615 615 20 615 615 615 33 23 615 26 615 615 615 615 615 615 615 615 16 615 24 31 615 615 615 29 34 615 615 0 615 615
615 615 615 615 615 21 615 615 615 615 615 615 23 615 615 615 615 615 16 615 615 615 615 615 615 615 615 615 16 9 615 5 615 615 615 16 19 615 615 615 615 615 615 615 20 12 615 615 615 615 615 615 16 615 615 615 615 25 615 615 615 615 615 615 615 615 615 615 615 615 22 615 615 615 29 21 615 615 615 615 615 615 11 615 615 7 12 12 615 615 615 18 615 29 21 615 0 615
615 34 615 615 615 615 615 28 24 615 615 615 615 615 615 615 22 615 615 12 615 615 615 615 615 615 615 615 615 615 615 615 615 615 615 615 615 615 615 615 615 11 615 21 615 615 10 615 615 615 615 42 615 615 615 615 615 615 615 615 615 16 615 615 22 30 615 615 615 19 615 615 21 31 615 615 13 615 615 615 24 615 615 615 615 615 615 615 6 615 615 615 615 615 615 615 615 0
EOF
